benchmarks_CP/INST_64x64/50/inst64x64_50_13.dzn
S=8;
start=[|
31,	-1,	63,	-1,	-1,	-1,	14,	46,	22,	-1,	-1,	-1,	-1,	-1,	-1,	24,	-1,	1,	10,	-1,	38,	4,	9,	-1,	-1,	-1,	-1,	-1,	34,	61,	43,	-1,	-1,	23,	55,	-1,	-1,	35,	-1,	47,	-1,	30,	-1,	-1,	2,	25,	26,	44,	-1,	-1,	58,	37,	-1,	64,	40,	-1,	-1,	15,	52,	-1,	-1,	-1,	-1,	48|
43,	-1,	60,	-1,	-1,	2,	37,	33,	-1,	4,	-1,	38,	17,	-1,	32,	53,	-1,	-1,	-1,	-1,	18,	-1,	-1,	-1,	25,	54,	-1,	16,	58,	44,	49,	28,	20,	10,	-1,	-1,	29,	-1,	-1,	-1,	-1,	15,	46,	59,	-1,	31,	-1,	-1,	13,	1,	12,	62,	63,	-1,	52,	48,	-1,	-1,	39,	24,	34,	21,	22,	-1|
-1,	-1,	-1,	-1,	48,	9,	-1,	54,	-1,	55,	44,	-1,	-1,	-1,	27,	-1,	16,	-1,	-1,	-1,	29,	-1,	12,	34,	52,	-1,	11,	-1,	-1,	21,	-1,	-1,	-1,	2,	26,	-1,	14,	53,	64,	-1,	57,	58,	40,	6,	-1,	13,	-1,	33,	45,	-1,	-1,	-1,	-1,	3,	38,	32,	-1,	-1,	46,	-1,	-1,	-1,	43,	-1|
6,	10,	-1,	-1,	56,	-1,	40,	-1,	-1,	-1,	16,	49,	28,	-1,	-1,	7,	-1,	63,	-1,	-1,	2,	-1,	-1,	-1,	-1,	-1,	5,	55,	-1,	-1,	-1,	24,	15,	-1,	37,	11,	-1,	9,	-1,	-1,	14,	-1,	-1,	32,	-1,	48,	38,	-1,	-1,	25,	-1,	-1,	-1,	51,	-1,	-1,	-1,	-1,	-1,	53,	-1,	62,	30,	-1|
58,	27,	-1,	42,	-1,	-1,	-1,	5,	-1,	1,	14,	59,	11,	-1,	-1,	37,	-1,	-1,	41,	6,	56,	-1,	-1,	49,	62,	63,	-1,	-1,	18,	-1,	30,	-1,	-1,	-1,	-1,	43,	-1,	-1,	8,	-1,	-1,	53,	-1,	61,	10,	34,	16,	29,	2,	55,	31,	-1,	60,	36,	17,	24,	40,	54,	-1,	64,	44,	45,	-1,	-1|
49,	-1,	51,	12,	29,	-1,	-1,	39,	58,	-1,	54,	33,	-1,	-1,	-1,	-1,	-1,	57,	36,	14,	-1,	20,	31,	-1,	47,	56,	40,	-1,	-1,	-1,	32,	-1,	38,	59,	-1,	17,	24,	-1,	-1,	34,	-1,	-1,	63,	11,	-1,	18,	64,	-1,	42,	-1,	43,	-1,	-1,	-1,	61,	-1,	23,	25,	1,	-1,	-1,	7,	-1,	27|
3,	-1,	11,	28,	-1,	53,	-1,	61,	23,	-1,	-1,	46,	-1,	-1,	-1,	64,	40,	-1,	15,	-1,	17,	-1,	5,	-1,	-1,	19,	-1,	12,	-1,	-1,	51,	-1,	-1,	49,	31,	-1,	-1,	21,	-1,	-1,	55,	24,	56,	-1,	-1,	1,	54,	-1,	-1,	16,	34,	-1,	-1,	-1,	-1,	-1,	-1,	-1,	-1,	-1,	-1,	60,	58,	13|
-1,	-1,	-1,	-1,	-1,	20,	34,	-1,	36,	6,	-1,	12,	-1,	56,	-1,	3,	26,	-1,	59,	-1,	-1,	-1,	24,	-1,	50,	10,	-1,	1,	48,	-1,	-1,	64,	16,	-1,	-1,	-1,	32,	63,	-1,	40,	-1,	-1,	7,	-1,	-1,	-1,	21,	42,	-1,	11,	46,	-1,	-1,	39,	29,	-1,	-1,	-1,	-1,	31,	-1,	41,	-1,	57|
1,	-1,	-1,	58,	-1,	44,	-1,	31,	51,	-1,	38,	4,	-1,	59,	12,	27,	-1,	64,	-1,	-1,	-1,	23,	34,	63,	-1,	6,	-1,	-1,	11,	-1,	-1,	30,	-1,	46,	-1,	47,	-1,	60,	-1,	10,	40,	62,	-1,	-1,	-1,	43,	-1,	-1,	-1,	54,	22,	-1,	-1,	35,	-1,	-1,	36,	53,	-1,	21,	-1,	61,	-1,	-1|
63,	28,	-1,	4,	-1,	-1,	56,	53,	10,	35,	1,	-1,	49,	-1,	57,	-1,	-1,	-1,	29,	-1,	-1,	6,	-1,	-1,	-1,	-1,	14,	52,	-1,	-1,	-1,	-1,	32,	-1,	-1,	-1,	17,	-1,	-1,	-1,	59,	-1,	64,	-1,	-1,	12,	-1,	-1,	-1,	43,	27,	-1,	-1,	-1,	41,	-1,	-1,	-1,	8,	38,	46,	22,	44,	-1|
-1,	42,	50,	-1,	-1,	43,	29,	-1,	-1,	-1,	-1,	20,	-1,	-1,	-1,	45,	-1,	55,	1,	25,	10,	-1,	28,	9,	7,	49,	58,	-1,	-1,	-1,	12,	4,	8,	-1,	36,	59,	-1,	-1,	-1,	-1,	46,	26,	21,	52,	-1,	54,	-1,	-1,	-1,	56,	16,	-1,	-1,	38,	-1,	6,	62,	-1,	40,	-1,	5,	-1,	-1,	-1|
20,	-1,	7,	48,	45,	37,	59,	11,	17,	-1,	62,	55,	-1,	-1,	23,	42,	-1,	13,	-1,	4,	-1,	31,	-1,	26,	-1,	22,	51,	28,	-1,	36,	-1,	-1,	27,	-1,	-1,	-1,	5,	64,	49,	-1,	-1,	41,	-1,	-1,	-1,	-1,	-1,	-1,	1,	-1,	-1,	-1,	2,	29,	12,	33,	-1,	6,	10,	50,	-1,	47,	34,	16|
17,	-1,	40,	-1,	-1,	-1,	-1,	-1,	8,	-1,	-1,	24,	-1,	-1,	-1,	-1,	18,	2,	62,	52,	-1,	-1,	-1,	46,	21,	45,	-1,	57,	-1,	20,	19,	-1,	-1,	-1,	48,	13,	58,	-1,	14,	9,	63,	4,	-1,	50,	42,	-1,	-1,	-1,	-1,	39,	15,	-1,	51,	-1,	-1,	59,	-1,	-1,	-1,	25,	29,	-1,	-1,	-1|
-1,	13,	57,	38,	-1,	6,	8,	-1,	26,	53,	25,	58,	-1,	28,	-1,	21,	47,	12,	-1,	-1,	45,	-1,	39,	16,	-1,	-1,	-1,	-1,	29,	55,	59,	61,	-1,	18,	1,	-1,	52,	24,	-1,	-1,	-1,	3,	32,	-1,	-1,	-1,	-1,	51,	-1,	49,	-1,	42,	-1,	23,	34,	17,	-1,	-1,	-1,	-1,	-1,	-1,	-1,	60|
-1,	-1,	62,	-1,	25,	36,	-1,	-1,	-1,	-1,	-1,	19,	-1,	-1,	30,	47,	44,	-1,	-1,	-1,	-1,	40,	-1,	-1,	8,	3,	64,	42,	-1,	24,	5,	-1,	57,	16,	34,	-1,	39,	-1,	-1,	-1,	-1,	-1,	-1,	-1,	15,	6,	-1,	2,	-1,	37,	-1,	-1,	18,	-1,	48,	-1,	52,	-1,	28,	-1,	-1,	-1,	-1,	-1|
-1,	64,	-1,	-1,	26,	39,	52,	-1,	6,	-1,	48,	11,	46,	-1,	37,	-1,	33,	-1,	38,	21,	-1,	-1,	8,	3,	18,	35,	-1,	-1,	44,	27,	-1,	41,	61,	12,	-1,	51,	-1,	42,	-1,	62,	1,	7,	22,	58,	-1,	56,	-1,	28,	-1,	-1,	63,	10,	50,	-1,	4,	-1,	57,	-1,	9,	-1,	49,	13,	59,	24|
-1,	-1,	5,	-1,	-1,	-1,	-1,	-1,	-1,	50,	-1,	52,	-1,	62,	42,	-1,	-1,	43,	49,	-1,	-1,	46,	60,	4,	-1,	-1,	17,	56,	-1,	30,	-1,	9,	24,	-1,	59,	-1,	-1,	-1,	13,	-1,	-1,	35,	-1,	-1,	-1,	-1,	25,	-1,	47,	19,	-1,	-1,	-1,	14,	-1,	-1,	18,	-1,	-1,	7,	-1,	-1,	28,	22|
39,	-1,	44,	-1,	14,	-1,	-1,	29,	-1,	25,	36,	18,	-1,	-1,	15,	33,	59,	45,	52,	5,	-1,	-1,	21,	28,	-1,	34,	-1,	-1,	63,	2,	-1,	27,	-1,	-1,	22,	7,	-1,	6,	60,	30,	-1,	-1,	-1,	1,	62,	37,	-1,	-1,	-1,	-1,	-1,	61,	-1,	-1,	-1,	-1,	-1,	9,	-1,	19,	-1,	35,	-1,	-1|
-1,	-1,	-1,	-1,	-1,	24,	53,	-1,	-1,	-1,	41,	30,	-1,	-1,	43,	55,	-1,	-1,	9,	-1,	-1,	3,	23,	-1,	59,	58,	44,	19,	61,	49,	60,	11,	-1,	-1,	-1,	33,	51,	-1,	-1,	17,	32,	-1,	5,	-1,	-1,	45,	-1,	-1,	4,	-1,	-1,	29,	21,	8,	-1,	-1,	-1,	-1,	13,	6,	63,	-1,	36,	-1|
47,	50,	35,	-1,	-1,	-1,	-1,	36,	-1,	-1,	27,	34,	-1,	26,	-1,	-1,	14,	-1,	-1,	13,	7,	-1,	2,	-1,	-1,	28,	-1,	-1,	-1,	43,	6,	33,	21,	4,	62,	20,	-1,	32,	-1,	16,	22,	-1,	51,	44,	53,	-1,	12,	63,	-1,	-1,	11,	39,	3,	58,	-1,	-1,	-1,	23,	-1,	-1,	64,	-1,	24,	-1|
-1,	31,	-1,	43,	41,	32,	-1,	59,	-1,	-1,	10,	-1,	-1,	-1,	49,	-1,	29,	-1,	-1,	12,	-1,	-1,	38,	-1,	-1,	-1,	-1,	24,	3,	13,	-1,	62,	11,	-1,	23,	52,	50,	-1,	-1,	46,	-1,	-1,	9,	-1,	-1,	30,	6,	-1,	35,	-1,	25,	-1,	-1,	63,	-1,	2,	27,	-1,	5,	-1,	47,	-1,	15,	42|
42,	37,	64,	33,	13,	22,	-1,	18,	-1,	46,	-1,	29,	1,	32,	-1,	-1,	-1,	-1,	-1,	-1,	40,	27,	-1,	19,	-1,	-1,	16,	20,	-1,	23,	-1,	-1,	-1,	48,	-1,	-1,	-1,	38,	3,	-1,	-1,	-1,	52,	56,	-1,	58,	-1,	-1,	49,	15,	30,	-1,	43,	9,	24,	5,	26,	45,	25,	8,	21,	10,	-1,	-1|
27,	52,	-1,	-1,	30,	-1,	45,	48,	28,	23,	-1,	16,	-1,	-1,	-1,	-1,	53,	-1,	-1,	-1,	-1,	58,	-1,	18,	-1,	25,	21,	15,	-1,	46,	-1,	29,	-1,	-1,	-1,	42,	-1,	-1,	-1,	26,	-1,	-1,	-1,	24,	-1,	38,	20,	-1,	-1,	-1,	-1,	-1,	10,	41,	44,	-1,	-1,	57,	34,	12,	-1,	-1,	54,	56|
26,	-1,	16,	21,	63,	-1,	-1,	9,	31,	24,	-1,	-1,	53,	-1,	-1,	8,	-1,	20,	-1,	35,	39,	-1,	-1,	17,	-1,	47,	36,	4,	-1,	10,	-1,	-1,	25,	28,	-1,	45,	64,	49,	-1,	-1,	48,	33,	-1,	34,	-1,	-1,	29,	-1,	12,	-1,	1,	-1,	-1,	7,	-1,	-1,	-1,	2,	62,	-1,	-1,	-1,	-1,	-1|
-1,	53,	-1,	26,	-1,	21,	13,	35,	-1,	-1,	31,	-1,	4,	-1,	-1,	32,	-1,	40,	-1,	-1,	28,	-1,	-1,	-1,	-1,	44,	-1,	-1,	-1,	33,	-1,	54,	5,	-1,	57,	-1,	3,	14,	15,	49,	-1,	-1,	34,	39,	59,	-1,	-1,	24,	17,	-1,	-1,	6,	52,	48,	-1,	19,	9,	-1,	-1,	47,	10,	-1,	61,	-1|
-1,	-1,	-1,	-1,	-1,	-1,	36,	-1,	53,	-1,	-1,	40,	-1,	27,	-1,	30,	-1,	14,	-1,	-1,	-1,	-1,	-1,	-1,	35,	20,	-1,	45,	39,	-1,	-1,	-1,	-1,	-1,	-1,	62,	63,	59,	-1,	-1,	-1,	9,	15,	8,	-1,	-1,	55,	-1,	-1,	-1,	32,	-1,	-1,	-1,	-1,	23,	-1,	29,	-1,	58,	-1,	34,	50,	38|
-1,	-1,	-1,	51,	7,	-1,	-1,	-1,	-1,	-1,	-1,	-1,	-1,	-1,	-1,	-1,	-1,	59,	25,	-1,	-1,	-1,	44,	-1,	-1,	-1,	34,	-1,	-1,	53,	-1,	-1,	26,	32,	13,	-1,	11,	-1,	-1,	-1,	-1,	10,	-1,	-1,	45,	5,	-1,	40,	-1,	64,	-1,	55,	35,	-1,	-1,	30,	17,	24,	-1,	-1,	-1,	20,	6,	19|
52,	-1,	-1,	62,	60,	17,	46,	-1,	49,	37,	-1,	-1,	-1,	-1,	51,	-1,	-1,	22,	33,	-1,	43,	61,	10,	47,	12,	32,	59,	-1,	-1,	-1,	-1,	-1,	44,	-1,	39,	30,	-1,	50,	54,	24,	-1,	48,	20,	21,	-1,	-1,	-1,	64,	25,	-1,	3,	36,	5,	-1,	-1,	1,	63,	-1,	23,	-1,	18,	-1,	-1,	40|
-1,	1,	6,	34,	-1,	27,	-1,	24,	-1,	33,	60,	-1,	39,	-1,	-1,	-1,	62,	15,	-1,	-1,	-1,	-1,	-1,	38,	28,	-1,	-1,	36,	51,	11,	37,	-1,	-1,	-1,	20,	-1,	-1,	43,	17,	22,	-1,	-1,	42,	26,	41,	-1,	52,	-1,	-1,	-1,	57,	44,	56,	50,	10,	-1,	-1,	30,	54,	-1,	12,	16,	21,	-1|
50,	-1,	55,	-1,	-1,	38,	-1,	63,	47,	-1,	26,	-1,	16,	42,	17,	-1,	-1,	-1,	19,	7,	-1,	21,	56,	-1,	29,	-1,	10,	-1,	5,	6,	41,	-1,	1,	40,	60,	-1,	-1,	-1,	-1,	-1,	-1,	36,	-1,	-1,	4,	-1,	32,	62,	-1,	-1,	51,	-1,	54,	-1,	2,	-1,	-1,	49,	15,	39,	-1,	-1,	-1,	-1|
-1,	-1,	-1,	-1,	-1,	-1,	-1,	3,	52,	-1,	-1,	22,	-1,	1,	10,	18,	55,	39,	-1,	-1,	-1,	-1,	-1,	60,	9,	17,	24,	40,	62,	7,	-1,	42,	64,	-1,	38,	6,	19,	16,	-1,	28,	-1,	56,	35,	57,	30,	23,	-1,	-1,	-1,	-1,	13,	49,	-1,	27,	-1,	4,	45,	-1,	2,	37,	51,	-1,	14,	-1|
40,	44,	-1,	-1,	28,	-1,	10,	-1,	-1,	57,	-1,	2,	24,	-1,	63,	35,	-1,	54,	-1,	32,	16,	-1,	-1,	-1,	-1,	14,	-1,	46,	30,	31,	-1,	-1,	-1,	-1,	-1,	-1,	-1,	-1,	21,	-1,	-1,	13,	12,	17,	-1,	51,	18,	19,	-1,	-1,	-1,	-1,	9,	37,	39,	-1,	48,	-1,	4,	62,	-1,	33,	-1,	-1|
61,	29,	-1,	8,	-1,	-1,	60,	-1,	27,	28,	15,	-1,	-1,	-1,	24,	-1,	17,	4,	-1,	-1,	-1,	-1,	6,	-1,	63,	48,	-1,	-1,	-1,	47,	44,	38,	53,	5,	14,	32,	-1,	-1,	-1,	-1,	-1,	-1,	-1,	22,	34,	26,	51,	-1,	-1,	-1,	49,	-1,	-1,	-1,	-1,	37,	-1,	21,	35,	9,	36,	-1,	-1,	-1|
-1,	-1,	13,	-1,	32,	45,	16,	-1,	56,	-1,	-1,	26,	12,	38,	-1,	-1,	-1,	-1,	-1,	10,	-1,	-1,	46,	40,	-1,	-1,	27,	51,	20,	5,	-1,	-1,	17,	62,	-1,	-1,	-1,	4,	47,	25,	-1,	14,	-1,	23,	-1,	-1,	7,	-1,	33,	-1,	52,	28,	15,	18,	-1,	-1,	6,	-1,	55,	60,	-1,	43,	19,	30|
59,	-1,	22,	-1,	3,	41,	-1,	7,	-1,	-1,	-1,	-1,	31,	-1,	33,	63,	13,	21,	-1,	-1,	19,	-1,	51,	-1,	-1,	8,	-1,	-1,	-1,	-1,	45,	-1,	60,	36,	9,	24,	-1,	57,	38,	50,	-1,	-1,	28,	-1,	17,	-1,	-1,	-1,	-1,	-1,	2,	-1,	-1,	1,	-1,	25,	54,	44,	-1,	15,	27,	-1,	64,	-1|
37,	-1,	33,	19,	23,	-1,	28,	38,	46,	54,	4,	-1,	-1,	-1,	-1,	58,	-1,	-1,	-1,	-1,	-1,	2,	-1,	-1,	-1,	-1,	-1,	-1,	-1,	-1,	52,	15,	-1,	-1,	51,	49,	-1,	-1,	40,	59,	25,	-1,	-1,	-1,	1,	63,	41,	21,	-1,	7,	45,	17,	-1,	-1,	3,	-1,	5,	-1,	-1,	-1,	16,	-1,	53,	14|
-1,	34,	26,	-1,	-1,	42,	-1,	50,	59,	5,	-1,	17,	-1,	-1,	19,	-1,	-1,	31,	45,	16,	-1,	-1,	-1,	-1,	-1,	-1,	-1,	-1,	-1,	-1,	-1,	35,	-1,	6,	28,	64,	-1,	-1,	58,	-1,	44,	2,	-1,	60,	33,	-1,	-1,	-1,	-1,	-1,	55,	-1,	-1,	-1,	-1,	-1,	22,	-1,	47,	61,	-1,	51,	1,	49|
62,	51,	-1,	-1,	57,	-1,	47,	-1,	44,	10,	-1,	32,	-1,	30,	-1,	-1,	41,	38,	5,	28,	27,	1,	3,	61,	-1,	-1,	-1,	49,	-1,	12,	-1,	25,	-1,	-1,	-1,	31,	-1,	-1,	-1,	56,	8,	-1,	-1,	54,	55,	-1,	-1,	-1,	19,	-1,	9,	-1,	-1,	-1,	-1,	-1,	-1,	13,	33,	40,	-1,	-1,	48,	-1|
-1,	-1,	-1,	-1,	-1,	12,	2,	-1,	-1,	51,	49,	64,	20,	14,	41,	40,	63,	7,	43,	-1,	-1,	-1,	37,	-1,	-1,	4,	9,	17,	-1,	-1,	-1,	-1,	48,	45,	19,	8,	22,	-1,	33,	-1,	-1,	-1,	-1,	30,	18,	27,	5,	-1,	36,	-1,	47,	-1,	-1,	-1,	56,	21,	3,	28,	32,	57,	58,	-1,	-1,	34|
5,	-1,	25,	27,	-1,	35,	-1,	-1,	29,	11,	-1,	-1,	7,	36,	18,	-1,	15,	-1,	14,	-1,	33,	-1,	-1,	-1,	-1,	-1,	-1,	-1,	28,	19,	57,	60,	-1,	-1,	16,	46,	30,	54,	55,	13,	-1,	50,	-1,	31,	49,	32,	56,	-1,	38,	62,	24,	51,	6,	10,	-1,	40,	2,	8,	-1,	-1,	-1,	-1,	-1,	-1|
-1,	5,	52,	41,	50,	26,	-1,	-1,	61,	31,	30,	21,	48,	-1,	38,	-1,	-1,	-1,	18,	53,	54,	-1,	-1,	22,	4,	-1,	43,	-1,	45,	-1,	42,	40,	58,	57,	32,	35,	-1,	-1,	11,	2,	-1,	51,	37,	-1,	12,	46,	63,	47,	-1,	-1,	6,	1,	19,	28,	27,	-1,	-1,	-1,	-1,	14,	25,	-1,	-1,	36|
-1,	-1,	-1,	11,	20,	-1,	-1,	57,	34,	-1,	24,	13,	45,	50,	62,	-1,	38,	-1,	-1,	-1,	-1,	15,	41,	-1,	3,	31,	33,	-1,	1,	63,	36,	8,	54,	-1,	7,	-1,	-1,	-1,	53,	-1,	39,	-1,	-1,	-1,	-1,	-1,	-1,	-1,	29,	-1,	21,	-1,	-1,	32,	-1,	-1,	-1,	18,	49,	10,	30,	-1,	-1,	12|
-1,	61,	-1,	-1,	-1,	1,	-1,	-1,	14,	3,	53,	56,	-1,	25,	-1,	-1,	-1,	51,	-1,	40,	47,	-1,	-1,	33,	-1,	-1,	55,	-1,	2,	-1,	62,	-1,	-1,	39,	-1,	38,	-1,	26,	-1,	52,	-1,	-1,	-1,	35,	43,	57,	-1,	-1,	20,	-1,	-1,	-1,	12,	-1,	-1,	-1,	-1,	59,	-1,	-1,	-1,	44,	27,	-1|
33,	-1,	-1,	29,	-1,	-1,	-1,	62,	18,	60,	22,	-1,	37,	5,	20,	-1,	28,	-1,	-1,	-1,	35,	19,	-1,	36,	-1,	26,	13,	-1,	-1,	56,	-1,	12,	-1,	-1,	64,	-1,	-1,	-1,	-1,	-1,	10,	-1,	-1,	-1,	52,	17,	-1,	61,	34,	3,	-1,	-1,	38,	-1,	-1,	44,	-1,	47,	7,	32,	42,	2,	8,	15|
-1,	-1,	-1,	31,	17,	14,	-1,	25,	41,	47,	52,	-1,	51,	-1,	-1,	4,	-1,	-1,	-1,	-1,	63,	42,	-1,	44,	60,	-1,	-1,	-1,	19,	35,	-1,	-1,	-1,	-1,	-1,	40,	34,	-1,	-1,	-1,	15,	-1,	26,	18,	5,	33,	-1,	32,	54,	13,	36,	-1,	-1,	-1,	57,	-1,	-1,	22,	-1,	11,	43,	-1,	45,	-1|
21,	-1,	27,	37,	-1,	4,	-1,	-1,	1,	16,	63,	-1,	-1,	43,	54,	23,	49,	-1,	-1,	-1,	25,	-1,	11,	20,	39,	15,	-1,	38,	22,	57,	17,	-1,	-1,	50,	-1,	18,	-1,	-1,	24,	48,	58,	44,	30,	2,	-1,	62,	-1,	60,	55,	-1,	8,	-1,	-1,	-1,	64,	-1,	28,	51,	29,	-1,	61,	-1,	5,	6|
-1,	30,	8,	-1,	-1,	-1,	-1,	45,	-1,	7,	58,	-1,	33,	12,	-1,	39,	-1,	29,	-1,	26,	13,	-1,	27,	43,	-1,	18,	54,	-1,	16,	-1,	21,	10,	-1,	15,	6,	63,	-1,	-1,	-1,	-1,	24,	20,	-1,	-1,	-1,	49,	50,	9,	60,	2,	-1,	-1,	14,	59,	62,	11,	-1,	4,	64,	-1,	-1,	1,	-1,	-1|
16,	-1,	18,	-1,	47,	-1,	43,	-1,	2,	-1,	19,	44,	-1,	-1,	11,	15,	34,	37,	-1,	56,	-1,	-1,	-1,	-1,	-1,	-1,	50,	-1,	-1,	-1,	28,	-1,	-1,	30,	17,	-1,	59,	-1,	31,	1,	-1,	54,	4,	-1,	-1,	-1,	8,	-1,	5,	48,	10,	-1,	45,	-1,	-1,	61,	55,	40,	-1,	-1,	13,	53,	60,	33|
-1,	-1,	37,	52,	-1,	-1,	-1,	19,	4,	-1,	18,	54,	-1,	51,	-1,	-1,	23,	56,	34,	9,	-1,	-1,	43,	45,	15,	-1,	-1,	62,	35,	50,	1,	-1,	59,	-1,	21,	-1,	-1,	20,	-1,	-1,	-1,	29,	58,	-1,	-1,	-1,	2,	-1,	53,	36,	-1,	-1,	55,	-1,	63,	10,	64,	3,	61,	-1,	-1,	38,	-1,	-1|
-1,	-1,	29,	40,	-1,	-1,	35,	64,	-1,	30,	2,	-1,	58,	-1,	14,	20,	32,	47,	21,	22,	-1,	-1,	-1,	-1,	-1,	-1,	-1,	-1,	-1,	-1,	-1,	36,	13,	1,	-1,	34,	-1,	7,	27,	45,	-1,	-1,	44,	37,	26,	15,	-1,	-1,	-1,	-1,	48,	57,	59,	5,	-1,	-1,	25,	33,	19,	-1,	39,	-1,	46,	9|
57,	25,	38,	-1,	16,	3,	-1,	-1,	-1,	44,	-1,	-1,	34,	-1,	-1,	26,	-1,	62,	-1,	-1,	42,	50,	52,	-1,	-1,	-1,	49,	-1,	47,	41,	-1,	58,	-1,	61,	35,	10,	-1,	-1,	28,	-1,	-1,	-1,	-1,	33,	-1,	-1,	-1,	56,	6,	-1,	37,	20,	24,	19,	21,	29,	7,	-1,	12,	23,	54,	59,	55,	53|
-1,	-1,	49,	24,	1,	58,	-1,	-1,	25,	39,	55,	-1,	8,	-1,	47,	50,	5,	17,	3,	-1,	14,	-1,	20,	41,	33,	59,	28,	60,	21,	-1,	-1,	-1,	51,	22,	52,	16,	-1,	56,	-1,	32,	-1,	-1,	-1,	42,	64,	10,	-1,	18,	30,	-1,	35,	-1,	-1,	-1,	31,	12,	-1,	48,	43,	36,	11,	-1,	37,	4|
18,	20,	43,	46,	44,	-1,	-1,	56,	38,	48,	-1,	-1,	-1,	19,	28,	29,	25,	-1,	13,	-1,	-1,	-1,	40,	7,	14,	-1,	42,	-1,	17,	-1,	-1,	-1,	37,	-1,	-1,	9,	-1,	-1,	12,	3,	-1,	-1,	-1,	51,	-1,	-1,	-1,	-1,	-1,	-1,	-1,	54,	22,	47,	-1,	-1,	-1,	35,	26,	34,	-1,	8,	-1,	-1|
8,	-1,	-1,	45,	-1,	54,	21,	12,	-1,	49,	-1,	61,	59,	-1,	7,	5,	4,	-1,	-1,	-1,	26,	37,	-1,	-1,	-1,	39,	-1,	29,	25,	-1,	-1,	2,	-1,	-1,	-1,	-1,	-1,	-1,	23,	-1,	-1,	34,	41,	-1,	63,	-1,	53,	6,	-1,	-1,	-1,	27,	64,	-1,	-1,	9,	30,	-1,	60,	44,	24,	-1,	13,	51|
14,	-1,	42,	50,	-1,	-1,	41,	-1,	-1,	22,	-1,	62,	9,	-1,	-1,	36,	58,	33,	27,	-1,	-1,	49,	63,	12,	-1,	53,	19,	-1,	57,	51,	-1,	-1,	-1,	17,	46,	44,	-1,	-1,	30,	-1,	13,	5,	-1,	38,	25,	-1,	-1,	-1,	52,	-1,	39,	4,	11,	-1,	28,	7,	10,	-1,	-1,	1,	45,	-1,	16,	-1|
36,	26,	34,	17,	-1,	61,	-1,	-1,	-1,	45,	-1,	23,	-1,	37,	6,	43,	-1,	-1,	-1,	39,	57,	38,	29,	-1,	-1,	13,	-1,	9,	-1,	-1,	7,	20,	33,	64,	54,	25,	-1,	11,	-1,	60,	30,	-1,	59,	-1,	31,	-1,	3,	-1,	51,	42,	44,	56,	-1,	-1,	-1,	62,	-1,	-1,	50,	41,	-1,	-1,	-1,	5|
-1,	-1,	-1,	1,	15,	7,	-1,	21,	-1,	-1,	12,	-1,	44,	2,	-1,	-1,	9,	-1,	-1,	-1,	52,	35,	-1,	-1,	-1,	-1,	61,	-1,	-1,	60,	-1,	-1,	-1,	-1,	49,	28,	-1,	-1,	22,	5,	-1,	45,	31,	-1,	51,	-1,	33,	57,	16,	58,	4,	3,	48,	-1,	59,	27,	19,	32,	14,	-1,	26,	-1,	25,	-1|
45,	-1,	10,	-1,	-1,	-1,	-1,	-1,	-1,	-1,	28,	-1,	26,	-1,	31,	-1,	51,	-1,	47,	58,	-1,	53,	-1,	-1,	30,	-1,	52,	-1,	-1,	-1,	3,	-1,	50,	44,	-1,	2,	-1,	46,	59,	37,	-1,	61,	-1,	-1,	-1,	21,	11,	55,	56,	-1,	14,	-1,	-1,	22,	-1,	-1,	-1,	12,	-1,	-1,	15,	-1,	42,	41|
9,	33,	31,	44,	35,	13,	3,	17,	30,	-1,	7,	-1,	27,	29,	8,	-1,	-1,	61,	26,	38,	37,	45,	-1,	56,	-1,	-1,	-1,	-1,	49,	40,	23,	18,	-1,	24,	-1,	-1,	-1,	52,	43,	11,	-1,	-1,	-1,	-1,	50,	4,	-1,	-1,	10,	-1,	-1,	-1,	57,	-1,	-1,	-1,	-1,	-1,	53,	-1,	-1,	-1,	20,	-1|
29,	43,	12,	57,	5,	48,	-1,	-1,	-1,	-1,	-1,	-1,	61,	-1,	3,	9,	2,	60,	-1,	-1,	-1,	36,	33,	15,	17,	-1,	7,	-1,	64,	-1,	-1,	-1,	42,	21,	58,	-1,	-1,	-1,	-1,	-1,	26,	-1,	-1,	62,	40,	-1,	-1,	-1,	-1,	51,	-1,	32,	30,	31,	-1,	8,	13,	-1,	27,	22,	56,	28,	-1,	-1|
-1,	8,	-1,	-1,	-1,	28,	-1,	26,	37,	-1,	-1,	53,	21,	11,	-1,	-1,	12,	-1,	-1,	-1,	-1,	-1,	13,	-1,	58,	-1,	-1,	63,	41,	62,	-1,	57,	9,	-1,	3,	-1,	16,	-1,	-1,	64,	-1,	-1,	-1,	48,	-1,	24,	15,	-1,	50,	-1,	54,	-1,	36,	-1,	-1,	-1,	-1,	34,	45,	-1,	7,	-1,	40,	61|
56,	36,	61,	-1,	58,	50,	-1,	-1,	55,	52,	-1,	-1,	-1,	-1,	25,	-1,	-1,	-1,	-1,	-1,	-1,	-1,	32,	-1,	19,	12,	-1,	48,	-1,	28,	-1,	-1,	-1,	33,	-1,	-1,	13,	27,	51,	-1,	29,	42,	18,	-1,	-1,	-1,	-1,	-1,	-1,	-1,	-1,	40,	46,	44,	5,	43,	-1,	-1,	-1,	3,	-1,	31,	-1,	-1|
-1,	-1,	14,	64,	-1,	-1,	-1,	-1,	-1,	20,	-1,	-1,	43,	48,	-1,	-1,	3,	-1,	-1,	-1,	-1,	-1,	-1,	25,	-1,	-1,	15,	-1,	50,	8,	47,	-1,	-1,	26,	30,	29,	18,	-1,	-1,	-1,	-1,	-1,	27,	63,	9,	-1,	-1,	-1,	21,	35,	53,	-1,	62,	49,	-1,	41,	44,	-1,	16,	-1,	-1,	36,	10,	39|
19,	24,	59,	-1,	42,	25,	-1,	-1,	-1,	-1,	-1,	15,	22,	-1,	-1,	51,	43,	10,	-1,	-1,	20,	-1,	-1,	39,	-1,	-1,	35,	14,	31,	34,	9,	-1,	40,	-1,	8,	-1,	1,	-1,	32,	-1,	17,	-1,	3,	-1,	58,	36,	-1,	5,	-1,	-1,	-1,	7,	61,	45,	6,	13,	60,	-1,	38,	-1,	-1,	-1,	-1,	37|];
