benchmarks_LEQ/INST_64x64/50/inst64x64_50_13.txt
8
1
31	-1	-1	-1	36	18	-1	-1	22	42	13	-1	57	-1	29	-1	-1	-1	-1	51	-1	4	-1	-1	-1	33	-1	-1	34	61	43	17	-1	-1	-1	-1	-1	35	-1	-1	41	30	49	19	-1	-1	26	-1	-1	-1	58	37	20	64	-1	-1	-1	15	-1	-1	32	6	-1	48
-1	-1	-1	7	-1	2	-1	33	-1	-1	5	-1	-1	-1	-1	53	45	-1	55	-1	-1	47	-1	-1	-1	54	57	-1	58	44	49	28	20	-1	-1	27	-1	61	-1	6	51	-1	46	-1	8	31	23	-1	-1	1	-1	-1	63	-1	52	-1	14	-1	-1	24	-1	21	-1	-1
23	4	17	35	48	-1	-1	54	-1	-1	44	51	18	47	-1	19	16	-1	-1	-1	29	25	12	-1	-1	-1	-1	31	36	21	-1	-1	-1	2	26	-1	14	53	64	39	-1	-1	-1	6	22	-1	62	33	45	10	56	-1	-1	3	38	32	-1	61	-1	-1	8	49	-1	63
6	10	45	47	-1	-1	-1	1	43	61	-1	49	28	31	34	7	-1	-1	60	-1	-1	39	50	58	23	41	-1	-1	-1	-1	8	-1	-1	13	-1	11	-1	9	-1	54	14	27	17	32	-1	48	38	12	44	-1	59	35	4	51	22	18	33	-1	36	53	3	62	-1	29
58	27	-1	-1	21	57	-1	5	-1	1	14	-1	-1	20	26	-1	22	23	41	-1	-1	-1	48	49	62	63	-1	7	-1	15	30	-1	46	-1	-1	-1	-1	-1	-1	-1	-1	53	39	61	10	-1	-1	-1	2	55	31	9	60	-1	17	24	-1	-1	51	-1	44	45	47	-1
-1	-1	51	-1	29	-1	26	-1	58	-1	54	33	30	-1	-1	-1	-1	-1	-1	14	53	-1	-1	62	47	56	40	-1	-1	22	-1	13	-1	-1	-1	17	24	45	-1	-1	-1	60	-1	11	37	-1	-1	-1	42	21	-1	-1	28	-1	-1	15	23	25	-1	16	-1	7	2	27
-1	-1	-1	-1	38	53	-1	61	-1	8	39	46	62	63	2	64	-1	-1	-1	-1	-1	-1	-1	-1	-1	19	29	12	-1	42	-1	-1	-1	49	31	-1	25	-1	-1	36	55	24	56	-1	35	-1	54	-1	-1	-1	34	47	7	33	26	-1	4	10	20	-1	9	-1	-1	-1
44	19	15	13	-1	-1	-1	-1	-1	-1	45	12	-1	56	60	3	-1	-1	59	33	-1	43	-1	54	-1	10	4	-1	48	14	2	-1	-1	-1	18	-1	-1	-1	62	40	5	-1	-1	9	-1	52	-1	-1	27	11	-1	23	49	39	-1	53	35	55	37	-1	38	41	-1	57
1	-1	-1	58	-1	44	-1	-1	-1	-1	-1	4	52	-1	-1	27	-1	64	-1	-1	41	23	34	63	-1	-1	-1	-1	-1	-1	33	-1	55	46	50	-1	-1	60	-1	10	40	-1	-1	49	-1	43	14	-1	57	-1	-1	-1	25	35	-1	28	-1	-1	-1	-1	-1	-1	-1	-1
63	28	9	-1	54	23	56	-1	-1	35	-1	7	49	39	-1	2	24	36	29	-1	-1	6	61	37	48	-1	-1	52	15	-1	-1	50	-1	11	-1	26	17	-1	-1	-1	-1	-1	64	5	13	-1	-1	34	-1	-1	-1	21	-1	60	-1	-1	51	-1	-1	38	46	-1	44	18
32	-1	-1	61	-1	-1	-1	51	-1	-1	3	20	13	-1	22	45	-1	55	-1	-1	-1	48	-1	9	-1	-1	58	34	60	-1	-1	-1	-1	41	36	59	31	30	-1	15	46	-1	-1	52	57	54	-1	-1	-1	-1	-1	14	-1	38	19	-1	-1	-1	40	35	5	-1	-1	23
-1	-1	-1	48	-1	37	59	11	-1	32	62	-1	14	61	-1	42	-1	13	-1	-1	60	31	-1	-1	53	22	-1	-1	56	-1	-1	-1	27	38	43	3	-1	-1	-1	35	-1	41	8	25	-1	44	9	-1	1	-1	-1	-1	-1	29	12	33	15	6	-1	-1	19	47	-1	-1
-1	35	-1	60	34	-1	33	-1	8	-1	43	-1	-1	-1	-1	-1	-1	2	62	-1	-1	-1	53	-1	-1	-1	31	-1	-1	-1	19	1	-1	54	-1	13	-1	28	14	9	63	4	-1	-1	-1	61	-1	23	-1	39	15	30	51	55	-1	59	12	26	-1	25	-1	27	-1	-1
-1	13	57	-1	27	-1	8	-1	26	53	-1	58	64	28	-1	21	47	12	50	-1	-1	22	39	16	-1	9	-1	-1	29	-1	-1	61	-1	18	1	56	-1	24	-1	-1	19	3	32	36	48	-1	35	-1	62	-1	5	-1	44	23	-1	17	-1	7	-1	-1	-1	-1	-1	60
-1	-1	-1	14	-1	36	12	-1	-1	56	9	19	-1	60	30	-1	44	-1	-1	59	32	40	-1	51	-1	-1	-1	42	23	24	-1	-1	-1	16	34	21	-1	22	-1	-1	45	-1	33	27	-1	6	-1	2	46	37	-1	-1	18	53	48	26	-1	63	-1	-1	-1	-1	4	1
-1	-1	19	30	-1	39	52	16	6	29	-1	11	-1	-1	37	-1	-1	5	38	-1	-1	-1	-1	-1	-1	35	-1	54	44	-1	40	-1	-1	-1	53	-1	23	42	-1	-1	-1	7	22	-1	-1	56	17	-1	32	-1	-1	10	-1	-1	-1	36	-1	43	-1	-1	49	13	-1	-1
38	3	5	23	12	34	1	6	21	50	-1	-1	63	-1	-1	-1	-1	-1	49	57	8	-1	60	-1	-1	64	17	56	-1	-1	31	-1	-1	29	59	36	-1	-1	13	-1	-1	-1	55	-1	-1	2	25	41	-1	-1	-1	33	-1	14	-1	45	18	-1	48	-1	53	-1	28	-1
39	-1	-1	-1	14	10	57	29	-1	-1	36	-1	47	4	-1	-1	59	-1	52	-1	-1	16	-1	-1	-1	-1	8	-1	-1	-1	-1	-1	-1	-1	-1	7	40	-1	-1	-1	-1	-1	-1	-1	-1	-1	-1	-1	31	-1	-1	61	-1	-1	32	38	49	9	-1	-1	-1	35	-1	3
7	-1	-1	-1	-1	24	53	28	-1	2	-1	30	-1	-1	-1	-1	-1	-1	9	-1	-1	-1	-1	-1	-1	-1	44	-1	61	49	-1	11	12	-1	15	33	-1	39	-1	-1	-1	47	5	-1	27	-1	57	10	4	-1	-1	29	-1	8	-1	42	16	-1	13	6	63	-1	-1	-1
-1	-1	-1	55	-1	49	15	36	19	-1	-1	-1	5	26	48	-1	-1	-1	-1	13	7	41	2	-1	-1	28	45	37	-1	43	6	-1	-1	4	-1	-1	10	32	1	16	-1	-1	-1	-1	-1	-1	12	63	-1	-1	11	-1	-1	-1	54	-1	-1	23	-1	29	64	17	-1	-1
51	-1	-1	-1	41	-1	-1	59	45	-1	10	-1	56	58	-1	54	29	-1	37	12	-1	-1	-1	55	57	1	-1	24	-1	13	-1	62	11	19	-1	52	-1	-1	34	-1	7	40	9	-1	-1	-1	-1	26	-1	-1	25	-1	-1	-1	36	-1	27	60	5	-1	47	-1	-1	42
-1	-1	-1	-1	-1	22	-1	-1	-1	-1	57	29	1	-1	-1	-1	50	6	63	-1	40	27	-1	-1	41	-1	-1	-1	12	-1	39	-1	2	48	61	-1	35	38	3	-1	-1	-1	-1	56	-1	58	36	4	-1	-1	30	-1	-1	-1	24	5	-1	-1	-1	-1	21	-1	-1	-1
-1	52	-1	2	30	60	45	-1	28	23	-1	16	-1	22	13	-1	53	11	-1	1	36	58	62	18	-1	-1	21	-1	-1	46	-1	-1	43	-1	5	42	47	31	-1	-1	49	-1	50	-1	19	-1	20	39	-1	6	-1	-1	-1	41	-1	-1	61	-1	34	12	33	32	54	-1
26	11	16	-1	-1	-1	58	-1	31	24	51	-1	-1	-1	-1	-1	-1	-1	-1	-1	-1	-1	15	-1	-1	47	-1	-1	14	-1	-1	52	-1	-1	-1	-1	-1	-1	-1	-1	-1	-1	23	-1	54	-1	-1	-1	12	50	1	60	-1	-1	46	56	38	-1	-1	43	-1	30	-1	-1
-1	-1	30	-1	-1	21	13	35	62	58	-1	-1	-1	23	36	-1	-1	40	20	-1	28	-1	45	11	64	-1	-1	-1	-1	-1	-1	-1	-1	-1	57	41	3	-1	15	49	-1	63	-1	-1	59	50	60	-1	-1	-1	29	6	52	48	16	-1	9	-1	22	-1	10	46	61	7
41	57	48	-1	-1	-1	-1	43	53	12	61	40	6	-1	56	-1	-1	14	-1	-1	-1	64	-1	24	-1	20	22	45	39	1	13	19	-1	25	2	-1	-1	-1	10	-1	-1	-1	-1	-1	-1	-1	55	-1	28	47	-1	-1	-1	-1	-1	23	11	-1	-1	-1	-1	34	50	38
15	-1	-1	-1	7	33	-1	4	3	-1	-1	48	54	-1	-1	-1	37	59	-1	23	-1	57	-1	-1	-1	-1	34	-1	52	-1	50	-1	-1	-1	-1	12	-1	-1	-1	31	61	-1	-1	16	45	-1	-1	-1	63	-1	-1	-1	35	62	-1	30	-1	24	42	27	-1	20	6	19
52	-1	56	62	-1	-1	46	8	49	37	11	28	19	55	51	-1	35	-1	33	-1	-1	61	-1	-1	-1	-1	-1	26	-1	-1	-1	-1	44	9	39	-1	-1	-1	-1	-1	-1	48	20	21	6	-1	-1	64	-1	-1	3	36	5	15	-1	-1	63	41	-1	-1	18	57	31	-1
-1	-1	6	34	19	-1	18	24	-1	33	60	9	-1	7	45	13	-1	15	-1	-1	5	-1	58	-1	-1	-1	3	-1	-1	11	-1	-1	35	8	20	-1	-1	-1	17	22	53	-1	-1	-1	41	-1	52	-1	-1	40	-1	44	-1	50	-1	14	32	30	54	-1	12	-1	-1	-1
-1	45	-1	20	-1	38	23	-1	47	-1	-1	25	16	42	-1	-1	-1	-1	19	-1	12	-1	56	13	-1	57	10	8	5	-1	-1	-1	1	40	60	61	33	37	-1	58	-1	-1	-1	3	-1	22	-1	62	-1	34	-1	-1	-1	11	2	-1	53	49	-1	-1	-1	64	35	-1
11	-1	-1	54	61	-1	-1	3	52	21	-1	-1	15	1	10	-1	-1	-1	-1	-1	-1	34	-1	60	-1	17	-1	-1	62	7	-1	-1	-1	-1	38	-1	19	16	-1	-1	-1	56	35	57	30	23	44	-1	-1	12	-1	49	-1	27	-1	-1	-1	5	2	-1	-1	-1	14	8
40	44	-1	59	28	64	10	-1	-1	57	50	2	-1	-1	63	35	52	54	6	32	16	-1	-1	53	-1	14	-1	46	30	31	-1	-1	-1	-1	29	23	45	34	-1	-1	-1	-1	-1	17	-1	51	18	19	-1	41	-1	-1	9	37	39	-1	48	-1	4	-1	-1	33	-1	25
61	-1	1	-1	11	31	60	-1	-1	-1	-1	45	-1	57	-1	25	17	4	-1	-1	-1	18	-1	-1	-1	-1	62	-1	33	-1	-1	-1	-1	-1	14	-1	-1	3	-1	-1	-1	-1	-1	-1	-1	26	-1	58	23	-1	49	-1	-1	16	-1	-1	-1	-1	35	-1	-1	50	-1	-1
-1	-1	13	-1	32	-1	16	-1	-1	34	-1	26	12	38	-1	-1	39	42	-1	-1	58	8	46	-1	-1	-1	-1	-1	-1	5	54	-1	17	62	-1	37	-1	-1	47	-1	-1	-1	-1	23	-1	-1	7	11	33	-1	52	28	15	18	-1	-1	6	-1	55	60	-1	-1	-1	-1
-1	-1	-1	-1	-1	41	-1	7	48	-1	37	-1	31	16	-1	-1	13	-1	53	-1	19	-1	-1	-1	26	8	56	-1	55	-1	-1	34	-1	36	9	24	-1	-1	-1	-1	-1	-1	-1	-1	17	-1	40	35	-1	30	-1	5	29	1	14	25	-1	44	-1	15	27	-1	64	10
37	-1	-1	-1	-1	30	-1	38	46	-1	-1	60	-1	9	-1	-1	-1	-1	-1	-1	-1	2	-1	50	31	61	-1	6	24	64	-1	-1	10	-1	-1	-1	-1	-1	40	-1	25	-1	-1	-1	-1	-1	-1	21	-1	-1	-1	17	-1	57	3	-1	5	-1	-1	42	-1	29	-1	14
4	-1	-1	36	-1	-1	-1	-1	-1	5	-1	-1	-1	13	-1	62	-1	-1	-1	-1	11	29	25	-1	46	7	-1	-1	-1	-1	14	-1	-1	-1	-1	64	43	-1	-1	21	44	-1	24	60	-1	53	-1	-1	-1	27	55	12	32	-1	20	-1	22	38	47	-1	37	-1	-1	-1
-1	-1	-1	39	57	-1	-1	14	-1	-1	-1	32	35	-1	-1	22	-1	38	-1	-1	27	1	3	61	-1	-1	-1	49	43	-1	16	-1	-1	7	-1	31	26	18	20	56	8	37	29	54	-1	59	-1	-1	-1	60	9	58	34	4	42	-1	24	13	33	40	-1	63	-1	52
53	-1	24	10	52	-1	2	55	50	-1	-1	64	20	14	41	40	-1	-1	-1	-1	62	44	37	35	-1	4	9	17	-1	-1	11	-1	48	45	19	-1	22	1	-1	29	-1	-1	38	-1	-1	-1	5	-1	-1	-1	47	-1	-1	-1	56	21	3	-1	-1	-1	-1	25	23	-1
-1	58	25	-1	43	-1	17	-1	29	11	-1	3	-1	36	-1	52	15	9	14	-1	33	-1	22	59	-1	-1	-1	-1	-1	-1	-1	60	-1	-1	-1	46	30	-1	55	13	-1	-1	61	31	-1	32	56	48	-1	62	24	-1	-1	10	-1	40	-1	8	-1	45	-1	39	-1	-1
-1	-1	52	41	50	-1	44	-1	61	31	-1	-1	48	17	-1	-1	-1	-1	-1	-1	-1	-1	59	22	4	-1	43	-1	-1	29	-1	40	-1	-1	32	-1	-1	-1	-1	2	34	51	37	-1	-1	46	-1	-1	15	-1	-1	-1	-1	28	-1	49	39	16	-1	14	-1	24	62	36
35	2	-1	-1	-1	55	42	57	-1	26	-1	-1	-1	50	62	59	-1	-1	17	-1	46	-1	41	-1	-1	31	33	44	-1	-1	-1	-1	54	60	-1	-1	-1	25	-1	-1	39	-1	-1	-1	16	14	-1	27	-1	-1	21	43	40	32	-1	-1	-1	-1	49	-1	-1	-1	-1	-1
-1	61	-1	-1	6	-1	-1	-1	-1	-1	-1	-1	-1	-1	64	28	60	-1	-1	-1	-1	9	-1	-1	-1	-1	-1	-1	2	-1	62	-1	-1	-1	-1	38	8	26	16	-1	-1	23	19	35	-1	57	-1	-1	20	-1	50	-1	-1	17	7	-1	34	59	63	48	-1	-1	-1	-1
-1	9	-1	29	39	51	-1	62	18	-1	-1	57	-1	-1	-1	6	28	-1	23	31	35	-1	1	36	-1	26	-1	59	53	56	58	-1	49	43	-1	-1	21	55	-1	27	10	11	-1	40	-1	17	-1	61	-1	3	-1	-1	38	25	-1	44	50	47	-1	-1	42	-1	8	-1
24	38	53	31	17	14	64	-1	41	47	-1	8	51	-1	9	-1	6	-1	-1	-1	-1	42	55	-1	60	30	48	-1	-1	-1	-1	7	-1	3	-1	40	-1	29	-1	12	-1	-1	-1	18	-1	-1	-1	-1	-1	13	36	-1	-1	-1	-1	39	-1	22	21	-1	-1	23	-1	58
-1	7	-1	-1	59	-1	-1	-1	-1	-1	-1	35	40	43	-1	-1	49	32	-1	45	25	10	11	-1	39	15	41	38	-1	57	17	-1	36	-1	47	-1	9	13	-1	-1	-1	44	30	2	-1	62	-1	-1	55	-1	-1	53	33	46	64	31	28	51	-1	-1	61	-1	5	6
-1	-1	8	3	-1	56	48	-1	-1	7	-1	42	-1	12	55	-1	61	-1	-1	26	13	5	27	-1	-1	-1	54	-1	-1	52	-1	-1	19	15	6	63	-1	51	37	-1	24	-1	25	53	-1	49	-1	9	60	2	23	-1	14	-1	-1	-1	-1	-1	-1	-1	35	-1	38	-1
16	12	-1	-1	47	-1	43	-1	2	27	-1	-1	-1	-1	-1	-1	-1	-1	39	56	21	24	-1	14	-1	-1	50	-1	6	-1	-1	49	-1	-1	-1	22	59	23	-1	-1	-1	-1	-1	-1	-1	-1	-1	-1	5	-1	10	52	45	42	35	61	-1	-1	57	26	13	-1	-1	-1
-1	6	37	52	-1	5	30	19	-1	-1	18	54	42	-1	16	-1	23	56	34	9	44	-1	43	45	-1	11	-1	-1	35	50	1	-1	-1	14	21	57	-1	20	39	8	-1	29	58	47	-1	-1	2	7	-1	36	-1	25	55	-1	-1	-1	64	3	-1	17	-1	38	49	-1
-1	63	29	-1	-1	-1	35	-1	11	-1	2	41	58	-1	-1	-1	-1	-1	-1	-1	-1	55	-1	31	6	52	-1	61	-1	54	-1	-1	-1	-1	4	34	42	-1	-1	45	-1	43	-1	-1	26	-1	49	-1	-1	-1	48	57	-1	5	8	-1	25	-1	-1	-1	39	56	46	-1
57	-1	-1	-1	16	3	51	32	13	-1	46	31	34	64	-1	-1	36	62	8	11	42	50	-1	2	-1	-1	-1	30	47	-1	-1	-1	-1	-1	35	10	-1	-1	28	63	60	22	45	-1	-1	39	-1	56	6	17	-1	-1	24	-1	21	-1	-1	27	12	-1	54	-1	-1	-1
-1	-1	-1	-1	1	58	-1	13	25	39	55	63	8	53	47	50	5	17	-1	-1	14	54	-1	41	33	-1	-1	-1	-1	38	-1	-1	-1	22	52	-1	-1	-1	-1	-1	9	57	62	42	-1	10	-1	18	-1	-1	35	-1	23	34	31	-1	29	48	43	-1	-1	40	37	-1
18	-1	43	-1	-1	-1	-1	56	38	-1	-1	-1	-1	19	-1	-1	-1	-1	13	15	6	-1	40	7	14	5	-1	-1	17	-1	64	-1	-1	-1	24	9	53	2	-1	3	-1	1	-1	51	32	-1	4	50	-1	-1	60	54	22	47	49	-1	-1	-1	26	34	-1	-1	-1	-1
8	22	28	45	10	-1	21	-1	-1	-1	-1	-1	59	52	7	5	-1	-1	-1	-1	-1	37	-1	1	-1	-1	-1	-1	25	48	56	2	31	47	-1	-1	62	36	23	-1	11	-1	41	-1	-1	-1	-1	6	3	14	33	27	64	43	-1	9	30	-1	-1	-1	24	42	-1	51
-1	47	42	-1	-1	-1	-1	-1	-1	22	-1	-1	9	15	21	36	58	-1	-1	-1	-1	-1	63	12	37	-1	-1	-1	57	51	-1	26	29	17	46	44	55	-1	30	-1	-1	5	-1	-1	-1	35	-1	-1	52	32	39	-1	-1	-1	28	7	10	-1	-1	1	45	-1	16	2
-1	26	-1	17	4	-1	-1	-1	24	45	35	-1	-1	-1	6	43	48	-1	28	39	57	38	29	-1	-1	13	63	9	-1	-1	-1	-1	33	64	54	-1	49	-1	-1	-1	30	21	59	-1	31	-1	3	-1	51	-1	-1	56	-1	2	58	62	-1	14	50	-1	-1	15	52	5
-1	-1	41	-1	-1	-1	38	-1	42	13	-1	6	44	2	50	-1	-1	18	40	8	-1	-1	-1	29	56	43	-1	-1	-1	-1	-1	46	-1	-1	-1	28	-1	62	-1	5	37	45	31	-1	-1	-1	-1	57	-1	-1	4	3	48	24	-1	-1	19	-1	14	63	26	55	-1	-1
-1	16	10	-1	-1	40	-1	-1	39	-1	28	1	-1	18	-1	-1	-1	-1	-1	-1	-1	-1	7	-1	30	-1	-1	-1	-1	4	3	5	-1	44	63	2	60	-1	59	37	35	61	-1	-1	38	-1	-1	-1	-1	29	-1	64	17	22	-1	-1	-1	12	24	54	15	9	-1	-1
-1	-1	-1	44	-1	13	3	-1	-1	-1	7	-1	27	-1	8	-1	19	61	26	-1	-1	-1	14	-1	-1	-1	1	-1	49	40	-1	18	34	24	25	-1	48	52	-1	11	47	32	-1	-1	50	-1	28	-1	10	-1	-1	-1	-1	12	55	60	-1	64	53	-1	6	-1	-1	21
29	43	12	-1	-1	48	-1	52	16	63	23	-1	61	-1	3	9	2	-1	-1	46	34	36	33	-1	17	-1	7	-1	-1	25	10	55	42	21	-1	-1	-1	41	-1	4	-1	-1	53	62	-1	20	59	1	39	-1	19	32	-1	31	-1	-1	13	-1	27	-1	56	-1	-1	47
30	8	-1	-1	55	28	32	-1	37	-1	59	53	21	-1	35	-1	12	49	-1	27	1	17	-1	5	58	-1	-1	-1	-1	62	29	57	-1	31	3	19	-1	-1	6	-1	-1	-1	60	-1	44	24	15	-1	-1	-1	-1	2	36	-1	23	-1	43	-1	-1	-1	7	-1	40	61
56	36	-1	-1	58	50	11	-1	55	52	34	-1	60	24	-1	49	54	41	-1	63	4	-1	32	21	-1	-1	6	48	-1	-1	26	37	-1	-1	45	-1	-1	27	51	-1	29	42	-1	-1	-1	-1	-1	-1	-1	20	38	40	-1	44	5	43	-1	-1	-1	3	2	31	-1	-1
54	-1	-1	-1	51	46	-1	37	-1	20	-1	5	43	-1	58	56	3	24	31	55	59	28	-1	25	2	38	-1	-1	-1	-1	-1	45	-1	26	30	-1	18	17	61	57	12	-1	27	63	9	19	-1	22	21	35	-1	11	62	-1	1	41	-1	-1	16	-1	23	36	10	39
19	-1	59	53	42	-1	63	2	-1	64	-1	15	22	54	4	-1	43	-1	16	50	-1	11	57	-1	44	-1	35	14	31	-1	9	-1	-1	56	8	55	-1	-1	32	23	-1	52	-1	-1	-1	-1	30	5	-1	-1	28	7	61	45	-1	-1	60	-1	38	49	-1	-1	29	37
64 
32 61 27 43
44 62 24 58
42 25 13 59
36 11 21 60
9 7 1 50
38 11 14 6
17 60 28 37
1 49 9 52
31 25 2 9
14 25 56 24
14 46 15 19
54 8 16 34
2 49 43 47
50 15 51 45
50 46 36 32
5 47 26 6
48 35 11 30
21 31 2 21
17 50 54 23
50 16 17 51
34 11 30 22
27 7 8 5
40 27 51 60
23 44 44 25
51 2 38 32
26 52 36 23
3 15 17 53
49 46 1 37
9 45 24 47
20 24 34 64
31 7 15 47
49 64 39 59
51 44 11 14
40 34 56 3
23 31 36 34
36 20 33 61
22 2 60 55
59 20 23 46
43 34 54 26
63 9 10 38
59 16 55 7
40 11 37 6
6 51 7 48
54 60 22 64
1 25 44 47
33 64 30 56
36 43 40 20
64 62 37 49
12 39 35 20
30 1 7 7
48 26 42 56
3 25 43 40
9 58 41 20
1 56 60 36
10 42 25 31
33 57 11 50
60 4 47 19
58 20 20 54
1 57 30 10
20 46 7 62
34 15 52 20
15 3 49 28
29 22 45 21
18 51 42 42
